Cu2S-bulk                               
   1.00000000000000     
      26.896930766689149       0.000000000000000      -0.061027304796345
       0.000000000000000      15.744999999999999       0.000000000000000
       0.000000000000000       0.000000000000000      13.565000000000001
    Cu     S
    248   128
Direct
 0.0589000000000000   0.4992000000000000   0.0020000000000000
 0.0630000000000000   0.7552000000000001   0.0060000000000000
 0.0659000000000000   0.1285999999999998   0.2466000000000000
 0.0659000000000000   0.9899000000000000   0.4944000000000000
 0.0558000000000000   0.2425000000000000   0.4999000000000001
 0.0643000000000000   0.5085000000000000   0.4952000000000000
 0.0674000000000000   0.1125999999999999   0.7593000000000002
 0.0616000000000000   0.3598000000000001   0.7433000000000002
 0.0683000000000000   0.6155000000000001   0.7542000000000001
 0.1884000000000000   0.9994999999999993   0.9979000000000000
 0.1931000000000001   0.2535000000000000   0.9936000000000000
 0.1806000000000000   0.7459000000000001   0.9892000000000002
 0.1887000000000001   0.1255000000000000   0.2389000000000001
 0.1946000000000000   0.6214000000000001   0.2495000000000000
 0.1901000000000000   0.8706000000000002   0.2423000000000000
 0.1811000000000000   0.9987000000000000   0.4834000000000001
 0.1943000000000000   0.7503000000000001   0.4952000000000000
 0.1811000000000000   0.1335999999999999   0.7549000000000004
 0.1888000000000000   0.3852000000000000   0.7415000000000001
 0.1928000000000001   0.8774999999999994   0.7389000000000001
 0.0163000000000000   0.1531000000000000   0.0663000000000000
 0.0171000000000000   0.3905000000000001   0.1370999999999999
 0.0183000000000000   0.6344000000000001   0.1237000000000000
 0.0149000000000000   0.8761000000000001   0.1242000000000001
 0.0144000000000000   0.2896000000000000   0.3064000000000001
 0.0159000000000000   0.4645000000000000   0.3191000000000000
 0.0174000000000000   0.7391000000000001   0.3335000000000001
 0.0142000000000000   0.1044999999999999   0.5931000000000000
 0.0105000000000000   0.3883000000000000   0.5620000000000001
 0.0171000000000000   0.8599000000000001   0.6332000000000002
 0.0148000000000000   0.9667999999999999   0.8134000000000001
 0.1082000000000000   0.0824000000000000   0.0717000000000000
 0.1073000000000000   0.3426000000000000   0.0630000000000001
 0.1035000000000000   0.9110000000000000   0.0507000000000000
 0.1077000000000000   0.5346000000000001   0.3123000000000001
 0.1125000000000000   0.7667000000000001   0.3268000000000001
 0.1087000000000000   0.9573000000000000   0.3159000000000001
 0.1077000000000000   0.6589000000000002   0.5611000000000000
 0.1076000000000000   0.8330000000000001   0.5580000000000001
 0.1046000000000000   0.0073999999999999   0.8874000000000000
 0.1074000000000000   0.2501000000000000   0.8772000000000001
 0.1129000000000000   0.4717000000000000   0.8340000000000002
 0.1095000000000000   0.7747999999999995   0.8162000000000000
 0.1390000000000000   0.4994000000000000   0.1278000000000000
 0.1374000000000000   0.7322000000000001   0.1483000000000000
 0.1390000000000000   0.1700000000000000   0.4220000000000000
 0.1398000000000000   0.3665000000000001   0.4211000000000000
 0.1407000000000001   0.0056000000000000   0.6581000000000001
 0.1455000000000001   0.2551000000000000   0.6101000000000001
 0.1445000000000000   0.5031000000000000   0.6163000000000001
 0.1428000000000000   0.5976000000000000   0.9303000000000000
 0.2241000000000000   0.2883999999999999   0.1861000000000000
 0.2298000000000000   0.4622000000000000   0.1987000000000000
 0.2344000000000001   0.1381000000000000   0.4237000000000000
 0.2342000000000001   0.3910000000000000   0.4078000000000001
 0.2311000000000000   0.5883999999999998   0.4365999999999999
 0.2340000000000000   0.5409000000000001   0.6925000000000000
 0.2322000000000000   0.7143000000000001   0.6814000000000000
 0.2306000000000000   0.4086000000000000   0.9366000000000001
 0.2367000000000001   0.6345000000000001   0.8759000000000001
 0.2356000000000000   0.8534000000000001   0.9122000000000000
 0.1277000000000000   0.2615000000000000   0.2446000000000000
 0.4411000000000001   0.9992000000000000   0.4980000000000001
 0.4370000000000000   1.2552000000000001   0.4940000000000001
 0.4341000000000000   0.6285999999999997   0.2534000000000000
 0.4341000000000000   1.4899000000000000   0.0056000000000000
 0.4442000000000000   0.7425000000000001   0.0000999999999999
 0.4357000000000000   1.0085000000000000   0.0048000000000000
 0.4326000000000000   0.6125999999999998  -0.2593000000000001
 0.4384000000000000   0.8598000000000000  -0.2433000000000002
 0.4317000000000000   1.1154999999999999  -0.2542000000000001
 0.3116000000000000   1.4994999999999992  -0.4979000000000000
 0.3069000000000000   0.7535000000000001  -0.4936000000000000
 0.3194000000000000   1.2459000000000002  -0.4892000000000002
 0.3113000000000000   0.6254999999999999   0.2611000000000000
 0.3054000000000000   1.1214000000000000   0.2505000000000000
 0.3099000000000001   1.3706000000000003   0.2577000000000000
 0.3189000000000000   1.4986999999999999   0.0166000000000000
 0.3057000000000000   1.2503000000000000   0.0048000000000000
 0.3189000000000000   0.6335999999999999  -0.2549000000000003
 0.3112000000000000   0.8852000000000000  -0.2415000000000000
 0.3072000000000000   1.3774999999999995  -0.2389000000000001
 0.4837000000000000   0.6531000000000000   0.4337000000000001
 0.4829000000000001   0.8905000000000001   0.3629000000000001
 0.4817000000000000   1.1344000000000001   0.3763000000000000
 0.4851000000000000   1.3761000000000001   0.3758000000000000
 0.4856000000000000   0.7896000000000000   0.1936000000000000
 0.4841000000000000   0.9644999999999999   0.1809000000000000
 0.4826000000000000   1.2390999999999999   0.1665000000000000
 0.4858000000000000   0.6044999999999999  -0.0930999999999999
 0.4895000000000001   0.8883000000000000  -0.0620000000000000
 0.4829000000000001   1.3598999999999999  -0.1332000000000002
 0.4852000000000000   1.4667999999999999  -0.3134000000000001
 0.3918000000000000   0.5823999999999999   0.4283000000000001
 0.3927000000000000   0.8425999999999999   0.4369999999999999
 0.3965000000000000   1.4110000000000000   0.4493000000000000
 0.3923000000000000   1.0346000000000000   0.1877000000000000
 0.3875000000000000   1.2666999999999999   0.1731999999999999
 0.3913000000000000   1.4573000000000000   0.1841000000000000
 0.3923000000000000   1.1589000000000003  -0.0611000000000000
 0.3924000000000000   1.3330000000000002  -0.0580000000000000
 0.3954000000000000   0.5073999999999999  -0.3874000000000000
 0.3926000000000000   0.7501000000000000  -0.3772000000000001
 0.3871000000000000   0.9717000000000000  -0.3340000000000002
 0.3905000000000000   1.2747999999999995  -0.3162000000000000
 0.3610000000000000   0.9994000000000000   0.3722000000000000
 0.3626000000000000   1.2322000000000000   0.3517000000000000
 0.3610000000000000   0.6699999999999999   0.0780000000000000
 0.3602000000000000   0.8665000000000001   0.0789000000000000
 0.3593000000000000   0.5055999999999999  -0.1581000000000001
 0.3544999999999999   0.7550999999999999  -0.1101000000000001
 0.3555000000000000   1.0030999999999999  -0.1163000000000000
 0.3572000000000000   1.0975999999999999  -0.4303000000000000
 0.2759000000000000   0.7884000000000000   0.3139000000000000
 0.2702000000000001   0.9622000000000001   0.3013000000000000
 0.2656000000000000   0.6381000000000000   0.0763000000000000
 0.2657999999999999   0.8909999999999999   0.0921999999999999
 0.2689000000000001   1.0883999999999998   0.0634000000000001
 0.2660000000000000   1.0408999999999999  -0.1925000000000000
 0.2678000000000000   1.2142999999999999  -0.1814000000000000
 0.2694000000000000   0.9086000000000000  -0.4366000000000001
 0.2633000000000000   1.1345000000000001  -0.3759000000000001
 0.2644000000000000   1.3534000000000002  -0.4122000000000000
 0.3723000000000000   0.7615000000000000   0.2554000000000001
-0.0589000000000000  -0.4992000000000000  -0.0020000000000000
-0.0630000000000000  -0.7552000000000001  -0.0060000000000000
-0.0659000000000000  -0.1285999999999998  -0.2466000000000000
-0.0659000000000000  -0.9899000000000000  -0.4944000000000000
-0.0558000000000000  -0.2425000000000000  -0.4999000000000001
-0.0643000000000000  -0.5085000000000000  -0.4952000000000000
-0.0674000000000000  -0.1125999999999999  -0.7593000000000002
-0.0616000000000000  -0.3598000000000001  -0.7433000000000002
-0.0683000000000000  -0.6155000000000001  -0.7542000000000001
-0.1884000000000000  -0.9994999999999993  -0.9979000000000000
-0.1931000000000001  -0.2535000000000000  -0.9936000000000000
-0.1806000000000000  -0.7459000000000001  -0.9892000000000002
-0.1887000000000001  -0.1255000000000000  -0.2389000000000001
-0.1946000000000000  -0.6214000000000001  -0.2495000000000000
-0.1901000000000000  -0.8706000000000002  -0.2423000000000000
-0.1811000000000000  -0.9987000000000000  -0.4834000000000001
-0.1943000000000000  -0.7503000000000001  -0.4952000000000000
-0.1811000000000000  -0.1335999999999999  -0.7549000000000004
-0.1888000000000000  -0.3852000000000000  -0.7415000000000001
-0.1928000000000001  -0.8774999999999994  -0.7389000000000001
-0.0163000000000000  -0.1531000000000000  -0.0663000000000000
-0.0171000000000000  -0.3905000000000001  -0.1370999999999999
-0.0183000000000000  -0.6344000000000001  -0.1237000000000000
-0.0149000000000000  -0.8761000000000001  -0.1242000000000001
-0.0144000000000000  -0.2896000000000000  -0.3064000000000001
-0.0159000000000000  -0.4645000000000000  -0.3191000000000000
-0.0174000000000000  -0.7391000000000001  -0.3335000000000001
-0.0142000000000000  -0.1044999999999999  -0.5931000000000000
-0.0105000000000000  -0.3883000000000000  -0.5620000000000001
-0.0171000000000000  -0.8599000000000001  -0.6332000000000002
-0.0148000000000000  -0.9667999999999999  -0.8134000000000001
-0.1082000000000000  -0.0824000000000000  -0.0717000000000000
-0.1073000000000000  -0.3426000000000000  -0.0630000000000001
-0.1035000000000000  -0.9110000000000000  -0.0507000000000000
-0.1077000000000000  -0.5346000000000001  -0.3123000000000001
-0.1125000000000000  -0.7667000000000001  -0.3268000000000001
-0.1087000000000000  -0.9573000000000000  -0.3159000000000001
-0.1077000000000000  -0.6589000000000002  -0.5611000000000000
-0.1076000000000000  -0.8330000000000001  -0.5580000000000001
-0.1046000000000000  -0.0073999999999999  -0.8874000000000000
-0.1074000000000000  -0.2501000000000000  -0.8772000000000001
-0.1129000000000000  -0.4717000000000000  -0.8340000000000002
-0.1095000000000000  -0.7747999999999995  -0.8162000000000000
-0.1390000000000000  -0.4994000000000000  -0.1278000000000000
-0.1374000000000000  -0.7322000000000001  -0.1483000000000000
-0.1390000000000000  -0.1700000000000000  -0.4220000000000000
-0.1398000000000000  -0.3665000000000001  -0.4211000000000000
-0.1407000000000001  -0.0056000000000000  -0.6581000000000001
-0.1455000000000001  -0.2551000000000000  -0.6101000000000001
-0.1445000000000000  -0.5031000000000000  -0.6163000000000001
-0.1428000000000000  -0.5976000000000000  -0.9303000000000000
-0.2241000000000000  -0.2883999999999999  -0.1861000000000000
-0.2298000000000000  -0.4622000000000000  -0.1987000000000000
-0.2344000000000001  -0.1381000000000000  -0.4237000000000000
-0.2342000000000001  -0.3910000000000000  -0.4078000000000001
-0.2311000000000000  -0.5883999999999998  -0.4365999999999999
-0.2340000000000000  -0.5409000000000001  -0.6925000000000000
-0.2322000000000000  -0.7143000000000001  -0.6814000000000000
-0.2306000000000000  -0.4086000000000000  -0.9366000000000001
-0.2367000000000001  -0.6345000000000001  -0.8759000000000001
-0.2356000000000000  -0.8534000000000001  -0.9122000000000000
-0.1277000000000000  -0.2615000000000000  -0.2446000000000000
 0.5589000000000001   0.0008000000000000   0.5020000000000000
 0.5630000000000001  -0.2552000000000001   0.5060000000000000
 0.5659000000000001   0.3714000000000002   0.7466000000000002
 0.5659000000000001  -0.4899000000000000   0.9944000000000001
 0.5558000000000001   0.2575000000000000   0.9999000000000002
 0.5643000000000000  -0.0085000000000000   0.9952000000000001
 0.5674000000000001   0.3874000000000001   1.2593000000000003
 0.5616000000000001   0.1401999999999999   1.2433000000000003
 0.5683000000000000  -0.1155000000000001   1.2542000000000000
 0.6884000000000001  -0.4994999999999994   1.4979000000000002
 0.6931000000000002   0.2465000000000000   1.4936000000000000
 0.6806000000000001  -0.2459000000000001   1.4892000000000003
 0.6887000000000001   0.3745000000000000   0.7389000000000001
 0.6946000000000001  -0.1214000000000001   0.7495000000000001
 0.6901000000000001  -0.3706000000000002   0.7423000000000001
 0.6811000000000002  -0.4987000000000000   0.9834000000000002
 0.6943000000000000  -0.2503000000000001   0.9952000000000001
 0.6811000000000002   0.3664000000000001   1.2549000000000006
 0.6888000000000001   0.1148000000000000   1.2415000000000003
 0.6928000000000001  -0.3774999999999995   1.2389000000000003
 0.5163000000000001   0.3469000000000000   0.5663000000000000
 0.5171000000000000   0.1094999999999999   0.6371000000000000
 0.5183000000000001  -0.1344000000000001   0.6237000000000000
 0.5149000000000000  -0.3761000000000001   0.6242000000000001
 0.5144000000000000   0.2104000000000000   0.8064000000000001
 0.5159000000000000   0.0355000000000000   0.8191000000000001
 0.5174000000000001  -0.2391000000000001   0.8335000000000001
 0.5142000000000001   0.3955000000000001   1.0931000000000000
 0.5105000000000001   0.1117000000000000   1.0620000000000001
 0.5171000000000000  -0.3599000000000001   1.1332000000000002
 0.5148000000000000  -0.4667999999999999   1.3134000000000003
 0.6082000000000001   0.4176000000000000   0.5717000000000000
 0.6073000000000001   0.1574000000000000   0.5630000000000002
 0.6035000000000000  -0.4110000000000000   0.5507000000000001
 0.6077000000000000  -0.0346000000000001   0.8123000000000001
 0.6125000000000002  -0.2667000000000001   0.8268000000000001
 0.6087000000000000  -0.4573000000000000   0.8159000000000001
 0.6077000000000000  -0.1589000000000002   1.0611000000000002
 0.6076000000000000  -0.3330000000000001   1.0580000000000001
 0.6046000000000000   0.4926000000000001   1.3874000000000000
 0.6074000000000002   0.2499000000000000   1.3772000000000000
 0.6129000000000000   0.0283000000000000   1.3340000000000003
 0.6095000000000002  -0.2747999999999996   1.3162000000000000
 0.6390000000000001   0.0006000000000000   0.6278000000000000
 0.6374000000000001  -0.2322000000000001   0.6483000000000001
 0.6390000000000001   0.3300000000000000   0.9220000000000002
 0.6398000000000000   0.1335000000000000   0.9211000000000001
 0.6407000000000001   0.4944000000000000   1.1581000000000001
 0.6455000000000001   0.2449000000000000   1.1101000000000001
 0.6445000000000001  -0.0031000000000000   1.1163000000000001
 0.6428000000000000  -0.0976000000000000   1.4303000000000001
 0.7241000000000001   0.2116000000000001   0.6861000000000000
 0.7298000000000001   0.0378000000000000   0.6987000000000001
 0.7344000000000001   0.3619000000000000   0.9237000000000002
 0.7342000000000002   0.1090000000000000   0.9078000000000002
 0.7311000000000000  -0.0883999999999998   0.9365999999999999
 0.7340000000000001  -0.0409000000000000   1.1925000000000001
 0.7322000000000001  -0.2143000000000001   1.1814000000000000
 0.7306000000000000   0.0914000000000000   1.4366000000000003
 0.7367000000000001  -0.1345000000000001   1.3759000000000001
 0.7356000000000000  -0.3534000000000001   1.4122000000000001
 0.6277000000000000   0.2385000000000001   0.7446000000000000
 0.0646000000000000   0.9911000000000001   0.1743000000000000
 0.0570000000000000   0.2567000000000000   0.1634000000000001
 0.0587000000000000   0.5127000000000000   0.1746000000000000
 0.0563000000000000   0.7556000000000002   0.1747000000000000
 0.0621000000000000   0.1167000000000001   0.4139000000000001
 0.0569000000000000   0.3729000000000001   0.4192000000000000
 0.0698000000000000   0.6326000000000002   0.4114000000000000
 0.0669000000000000   0.8637000000000001   0.4146000000000000
 0.0569000000000000   0.9932000000000000   0.6626000000000002
 0.0661000000000000   0.2355999999999999   0.6666000000000003
 0.0645000000000000   0.4904000000000000   0.6666000000000003
 0.0683000000000000   0.7476999999999994   0.6718000000000002
 0.0650000000000000   0.1314000000000001   0.9276000000000002
 0.0634000000000000   0.3746000000000001   0.9149000000000002
 0.0617000000000000   0.6297000000000002   0.9236000000000001
 0.0660000000000000   0.8753000000000001   0.9031000000000001
 0.1886000000000000   0.1291000000000000   0.0741000000000000
 0.1872000000000000   0.3834000000000001   0.0790000000000000
 0.1834000000000000   0.6233000000000001   0.0801000000000000
 0.1838000000000000   0.8700000000000001   0.0748000000000000
 0.1889000000000000   0.0044000000000000   0.3207000000000000
 0.1928000000000001   0.2569999999999997   0.3414000000000000
 0.1871000000000000   0.4951000000000000   0.3374000000000001
 0.1950000000000000   0.7472999999999994   0.3290000000000002
 0.1827000000000001   0.1238999999999999   0.5768000000000001
 0.1822000000000001   0.3780000000000001   0.5718000000000001
 0.1900000000000001   0.6215999999999993   0.5800000000000000
 0.1875000000000000   0.8778000000000001   0.5754999999999999
 0.1851000000000000   0.9989000000000000   0.8256000000000001
 0.1882000000000001   0.2603000000000000   0.8271000000000000
 0.1934000000000001   0.5080000000000000   0.8370000000000002
 0.1915000000000000   0.7528000000000001   0.8246000000000001
 0.4354000000000000   1.4911000000000001   0.3257000000000001
 0.4430000000000000   0.7566999999999999   0.3366000000000000
 0.4413000000000000   1.0126999999999999   0.3254000000000000
 0.4437000000000000   1.2556000000000003   0.3253000000000000
 0.4379000000000000   0.6167000000000001   0.0861000000000000
 0.4431000000000000   0.8729000000000000   0.0808000000000000
 0.4302000000000000   1.1326000000000003   0.0886000000000000
 0.4331000000000000   1.3637000000000001   0.0854000000000000
 0.4431000000000000   1.4932000000000001  -0.1626000000000002
 0.4339000000000000   0.7355999999999999  -0.1666000000000003
 0.4355000000000001   0.9904000000000000  -0.1666000000000003
 0.4317000000000000   1.2476999999999994  -0.1718000000000002
 0.4350000000000001   0.6314000000000001  -0.4276000000000002
 0.4366000000000000   0.8746000000000000  -0.4149000000000002
 0.4383000000000000   1.1297000000000001  -0.4236000000000001
 0.4340000000000001   1.3753000000000000  -0.4031000000000001
 0.3114000000000000   0.6291000000000000   0.4259000000000001
 0.3128000000000000   0.8834000000000001   0.4210000000000000
 0.3166000000000001   1.1233000000000000   0.4199000000000001
 0.3162000000000000   1.3700000000000001   0.4252000000000001
 0.3111000000000000   0.5044000000000000   0.1793000000000001
 0.3072000000000000   0.7569999999999997   0.1586000000000001
 0.3129000000000000   0.9951000000000000   0.1625999999999999
 0.3050000000000000   1.2472999999999994   0.1709999999999999
 0.3173000000000000   0.6238999999999999  -0.0768000000000001
 0.3177999999999999   0.8780000000000001  -0.0718000000000001
 0.3099999999999999   1.1215999999999993  -0.0799999999999999
 0.3125000000000001   1.3778000000000001  -0.0754999999999999
 0.3149000000000000   1.4989000000000001  -0.3256000000000001
 0.3118000000000000   0.7603000000000000  -0.3271000000000000
 0.3065999999999999   1.0080000000000000  -0.3370000000000001
 0.3085000000000000   1.2528000000000001  -0.3246000000000001
-0.0646000000000000  -0.9911000000000001  -0.1743000000000000
-0.0570000000000000  -0.2567000000000000  -0.1634000000000001
-0.0587000000000000  -0.5127000000000000  -0.1746000000000000
-0.0563000000000000  -0.7556000000000002  -0.1747000000000000
-0.0621000000000000  -0.1167000000000001  -0.4139000000000001
-0.0569000000000000  -0.3729000000000001  -0.4192000000000000
-0.0698000000000000  -0.6326000000000002  -0.4114000000000000
-0.0669000000000000  -0.8637000000000001  -0.4146000000000000
-0.0569000000000000  -0.9932000000000000  -0.6626000000000002
-0.0661000000000000  -0.2355999999999999  -0.6666000000000003
-0.0645000000000000  -0.4904000000000000  -0.6666000000000003
-0.0683000000000000  -0.7476999999999994  -0.6718000000000002
-0.0650000000000000  -0.1314000000000001  -0.9276000000000002
-0.0634000000000000  -0.3746000000000001  -0.9149000000000002
-0.0617000000000000  -0.6297000000000002  -0.9236000000000001
-0.0660000000000000  -0.8753000000000001  -0.9031000000000001
-0.1886000000000000  -0.1291000000000000  -0.0741000000000000
-0.1872000000000000  -0.3834000000000001  -0.0790000000000000
-0.1834000000000000  -0.6233000000000001  -0.0801000000000000
-0.1838000000000000  -0.8700000000000001  -0.0748000000000000
-0.1889000000000000  -0.0044000000000000  -0.3207000000000000
-0.1928000000000001  -0.2569999999999997  -0.3414000000000000
-0.1871000000000000  -0.4951000000000000  -0.3374000000000001
-0.1950000000000000  -0.7472999999999994  -0.3290000000000002
-0.1827000000000001  -0.1238999999999999  -0.5768000000000001
-0.1822000000000001  -0.3780000000000001  -0.5718000000000001
-0.1900000000000001  -0.6215999999999993  -0.5800000000000000
-0.1875000000000000  -0.8778000000000001  -0.5754999999999999
-0.1851000000000000  -0.9989000000000000  -0.8256000000000001
-0.1882000000000001  -0.2603000000000000  -0.8271000000000000
-0.1934000000000001  -0.5080000000000000  -0.8370000000000002
-0.1915000000000000  -0.7528000000000001  -0.8246000000000001
 0.5646000000000001  -0.4911000000000000   0.6743000000000001
 0.5570000000000001   0.2433000000000000   0.6634000000000001
 0.5587000000000001  -0.0127000000000000   0.6746000000000001
 0.5563000000000000  -0.2556000000000002   0.6747000000000001
 0.5621000000000000   0.3832999999999999   0.9139000000000002
 0.5569000000000001   0.1270999999999999   0.9192000000000000
 0.5698000000000001  -0.1326000000000001   0.9114000000000001
 0.5669000000000001  -0.3637000000000001   0.9146000000000002
 0.5569000000000001  -0.4932000000000000   1.1626000000000003
 0.5661000000000001   0.2644000000000000   1.1666000000000003
 0.5645000000000000   0.0096000000000000   1.1666000000000003
 0.5683000000000000  -0.2476999999999995   1.1718000000000002
 0.5650000000000001   0.3685999999999999   1.4276000000000002
 0.5634000000000000   0.1253999999999999   1.4149000000000003
 0.5617000000000000  -0.1297000000000002   1.4236000000000002
 0.5660000000000001  -0.3753000000000001   1.4031000000000002
 0.6886000000000000   0.3709000000000000   0.5740999999999999
 0.6872000000000001   0.1165999999999999   0.5790000000000001
 0.6834000000000000  -0.1233000000000001   0.5801000000000001
 0.6838000000000001  -0.3700000000000001   0.5748000000000000
 0.6889000000000001   0.4956000000000000   0.8207000000000000
 0.6928000000000001   0.2430000000000003   0.8413999999999999
 0.6871000000000002   0.0049000000000000   0.8374000000000003
 0.6950000000000001  -0.2472999999999995   0.8290000000000002
 0.6827000000000001   0.3761000000000001   1.0768000000000002
 0.6822000000000001   0.1219999999999999   1.0718000000000003
 0.6900000000000002  -0.1215999999999994   1.0800000000000001
 0.6875000000000000  -0.3778000000000001   1.0754999999999999
 0.6851000000000000  -0.4989000000000000   1.3256000000000001
 0.6882000000000001   0.2397000000000000   1.3270999999999999
 0.6934000000000001  -0.0080000000000000   1.3370000000000002
 0.6915000000000001  -0.2528000000000001   1.3246000000000002
